Test: fpga13_10_sat.cnf
Options: -no-inverting-opt -sym-var-bump
WARNING: for repeatability, setting FPU to use double precision
============================[ Problem Statistics ]=============================
|                                                                             |
|  Number of symmetries:           28                                         |
|  Number of invertingSyms:         0                                         |
|  Number of variables:           195                                         |
|  Number of clauses:             905                                         |
|  Parse time:                   0.00 s                                       |
|                                                                             |
============================[ Search Statistics ]==============================
| Conflicts |          ORIGINAL         |          LEARNT          | Progress |
|           |    Vars  Clauses Literals |    Limit  Clauses Lit/Cl |          |
===============================================================================
|       100 |     195      905     2440 |      331      185     43 |  0.003 % |
|       250 |     195      905     2440 |      365      277     43 |  0.003 % |
|       475 |     195      905     2440 |      401      445     39 |  0.003 % |
===============================================================================
restarts              : 6
conflicts             : 619            (38685 /sec)
symconflicts          : 82             (5125 /sec)
decisions             : 1601           (0.00 % random) (100056 /sec)
propagations          : 15484          (967690 /sec)
sympropagations       : 498            (31123 /sec)
conflict literals     : 27844          (10.60 % deleted)
literals     : 27844          (10.60 % deleted)

HEURISTIC USAGES
random                : 0           
activity w/ lookahead : 0           
activity no lookahead : 0           
original sp           : 1600        
sym count             : 0           

Memory used           : 5.00 MB
CPU time              : 0.016001 s

SATISFIABLE
